unsat
(define-fun str_invariant ((top.usr.k0 Int) (top.usr.m0 Int) (top.usr.p Bool) (top.usr.q Bool) (top.usr.OK Bool) (top.res.init_flag Bool) (top.impl.usr.k Int) (top.impl.usr.m Int) (top.res.abs_0 Int) (top.res.abs_1 Int) (top.res.abs_2 Bool) (top.res.abs_3 Bool) (top.res.inst_2 Bool) (top.res.inst_1 Bool) (top.res.inst_0 Bool)) Bool (and top.usr.OK (= top.res.abs_0 0)))
0.08user 0.00system 0:00.08elapsed 100%CPU (0avgtext+0avgdata 27008maxresident)k
0inputs+8outputs (0major+1529minor)pagefaults 0swaps
